
   HANDE

 ================================================================
 Compiled on Apr 04 2016 at 22:24:49
 Compiled using cuc3.intel13.mpi.pop64.(optimised)
 VCS BASE repository version:
     da9c8759097cd4f728cbd232c8b52ee5b95c04e0
 Hostname:
     hypatia
 Working directory: 
     /home/rstf2/code/hande_master/test_suite/ifciqmc/np1/Ne-RHF-aug-cc-pVDZ
 Started running on 04/04/2016 at 23:07:53
 Calculation UUID: 5de74270-f5e8-442b-9a95-0b41ba306db6.
 Preprocessor settings:
     DISABLE_HDF5 not defined.  HDF5 enabled.
     DISABLE_LANCZOS not defined.  Lanczos enabled.
     DISABLE_UUID not defined.  UUID enabled.
     PARALLEL defined.  MPI parallelization enabled.
     DISABLE_SCALAPACK not defined.  ScaLAPACK enabled.
     SINGLE_PRECISION not defined.  Double precision used throughout.
     USE_POPCNT not defined.  Internal POPCNT procedure used.
     DET_SIZE = 32.
     POP_SIZE = 64.
 ================================================================

 Input options
 -------------

sys = read_in {
    int_file = "INTDUMP",
    nel = 10,
    ms = 0,
    sym = 0,
}

fciqmc {
    sys = sys,
    qmc = {
        tau = 0.005,
        initiator = true,
        rng_seed = 7,
        mc_cycles = 20,
        nreports = 75,
        target_population = 80000,
        state_size = -5,
        spawned_state_size = -2,
    },
    restart = {
        read = 0,
    },
}

--    SCF calculation produced by Q-Chem using:  
--[[
$molecule
    0 1
    10  0  0  0
$end

$rem
    basis aug-cc-pvdz
    exchange hf
    correlation idump
    scf_convergence 11
    thresh 13
    jobtype sp
    iprint 20000011
    geom_opt_coords 0
    print_orbitals 999
    unrestricted false
    use_abelian_subgroup true
    scf_restrict_sym 3
$end
--]]

 -------------

 Basis functions
 ---------------

 Spin given in units of 1/2.

 index  spatial symmetry sym_index lz     ms       <i|h|i>
     1      1       0       1       0       1       -3.27949509E+01
     2      1       0       2       0      -1       -3.27949509E+01
     3      2       0       3       0       1       -1.94042088E+00
     4      2       0       4       0      -1       -1.94042088E+00
     5      3       6       1      -1       1       -8.53040142E-01
     6      3       6       2      -1      -1       -8.53040142E-01
     7      4       7       1       1       1       -8.53040142E-01
     8      4       7       2       1      -1       -8.53040142E-01
     9      5       5       1       0       1       -8.53040142E-01
    10      5       5       2       0      -1       -8.53040142E-01
    11      6       0       5       0       1        2.87355188E-01
    12      6       0       6       0      -1        2.87355188E-01
    13      7       6       3      -1       1        2.93011368E-01
    14      7       6       4      -1      -1        2.93011368E-01
    15      8       7       3       1       1        2.93011368E-01
    16      8       7       4       1      -1        2.93011368E-01
    17      9       5       3       0       1        2.93011370E-01
    18      9       5       4       0      -1        2.93011370E-01
    19     10       1       1      -2       1        1.75769193E+00
    20     10       1       2      -2      -1        1.75769193E+00
    21     11       0       7       2       1        1.75769193E+00
    22     11       0       8       2      -1        1.75769193E+00
    23     12       3       1      -1       1        1.75769193E+00
    24     12       3       2      -1      -1        1.75769193E+00
    25     13       2       1       1       1        1.75769193E+00
    26     13       2       2       1      -1        1.75769193E+00
    27     14       0       9       0       1        1.75769193E+00
    28     14       0      10       0      -1        1.75769193E+00
    29     15       6       5      -1       1        1.96135062E+00
    30     15       6       6      -1      -1        1.96135062E+00
    31     16       7       5       1       1        1.96135062E+00
    32     16       7       6       1      -1        1.96135062E+00
    33     17       5       5       0       1        1.96135062E+00
    34     17       5       6       0      -1        1.96135062E+00
    35     18       0      11       0       1        2.74196569E+00
    36     18       0      12       0      -1        2.74196569E+00
    37     19       1       3      -2       1        6.37247301E+00
    38     19       1       4      -2      -1        6.37247301E+00
    39     20       0      13       2       1        6.37247301E+00
    40     20       0      14       2      -1        6.37247301E+00
    41     21       3       3      -1       1        6.37247301E+00
    42     21       3       4      -1      -1        6.37247301E+00
    43     22       2       3       1       1        6.37247301E+00
    44     22       2       4       1      -1        6.37247301E+00
    45     23       0      15       0       1        6.37247301E+00
    46     23       0      16       0      -1        6.37247301E+00

 E_core =    0.000000000000
 Number of electrons: 10
 Number of basis functions: 46

 Bit-length of integers used to store determinant bit-strings: 32
 Number of integers used to store determinant bit-strings: 2

 Symmetry information
 --------------------

 Number of point group symmetries: 8
 Not using Lz symmetry.
 Totally symmetric symmetry: 0
 The matrix below gives the direct products of the irreducible representations.

  0  1  2  3  4  5  6  7
  1  0  3  2  5  4  7  6
  2  3  0  1  6  7  4  5
  3  2  1  0  7  6  5  4
  4  5  6  7  0  1  2  3
  5  4  7  6  1  0  3  2
  6  7  4  5  2  3  0  1
  7  6  5  4  3  2  1  0

 The table below gives the number of basis functions spanning each irreducible representation.

 irrep  Lz   sym  nbasis  nbasis_up  nbasis_down
   0     0    0     16       8          8
   1     0    1      4       2          2
   2     0    2      4       2          2
   3     0    3      4       2          2
   4     0    4      0       0          0
   5     0    5      6       3          3
   6     0    6      6       3          3
   7     0    7      6       3          3

 FCIQMC
 ------

 Reading restart file from HANDE.RS.0.p0.H5.
 Memory allocated per core for main walker list (MB):    5.00
 Number of elements per core in main walker list: 178571
 Memory allocated per core for spawned walker lists (MB):    2.00
 Number of elements per core in spawned walker list: 31250

 Reading restart file from HANDE.RS.0.p0.H5.
 -- Start JSON block --
 {
     "system": {
         "nbasis": 46,   
         "nel": 10,   
         "nvirt": 36,   
         "Ms": 0,   
         "nalpha": 5,   
         "nbeta": 5,   
         "nvirt_alpha": 18,   
         "nvirt_beta": 18,   
         "nsym": 7,   
         "sym0": 0,   
         "sym_max": 7,   
         "nsym_tot": 8,   
         "sym0_tot": 0,   
         "sym_max_tot": 7,   
         "symmetry": 0,   
         "max_number_excitations": 10,   
         "read_in": {
             "int_file":  "INTDUMP",   
             "uhf": false,   
             "Ecore": 0.00000000,   
             "CAS": [ -1, -1],
             "useLz": false,   
             "complex": false    
         }
     },
     "qmc": {
         "rng_seed": 7,   
         "real_amplitudes": false,   
         "real_amplitude_force_32": false,   
         "spawn_cutoff": 0.01000000,   
         "excit_gen": 0,   
         "pattempt_single": 0.02281369,   
         "pattempt_double": 0.97718631,   
         "tau": 0.00500000,   
         "tau_search": false,   
         "vary_shift_from": 0.00000000,   
         "vary_shift_from_proje": false,   
         "initial_shift": 0.00000000,   
         "shift_damping": 0.05000000,   
         "walker_length": -5,   
         "spawned_walker_length": -2,   
         "D0_population": 0.00000000,   
         "target_particles": 80000.00000000,   
         "initiator_approx": true,   
         "initiator_pop": 3.00000000,   
         "ncycles": 20,   
         "nreport": 75,   
         "use_mpi_barriers": false    
     },
     "fciqmc": {
         "select_ref_det_every_nreports": 2147483647,   
         "init_spin_inv_D0": false,   
         "ref_det_factor": 1.50000000,   
         "non_blocking_comm": false,   
         "doing_load_balancing": false,   
         "trial_function": 0,   
         "guiding_function": 0    
     },
     "semi_stoch": {
         "start_iter": 1,   
         "shift_iter": -1,   
         "space_type": 0,   
         "target_size": 0,   
         "write_determ_space": false,   
         "projection_mode": 0,   
         "read_id": 2147483647,   
         "write_id": 2147483647    
     },
     "restart": {
         "read_restart": true,   
         "read_id": 0,   
         "write_restart": false,   
         "write_id": 2147483647,   
         "write_freq": 2147483647,   
         "write_restart_shift": false,   
         "write_shift_id": 2147483647    
     },
     "load balancing": {
         "nslots": 1,   
         "pop": 1000,   
         "percent": 0.05000000,   
         "max_attempts": 2,   
         "write_info": false    
     },
     "reference": {
         "det": [ 1, 2, 3, 4, 5, 6, 7, 8, 9, 10],
         "det_ms": 0,   
         "det_symmetry": 0,   
         "H00": -128.49634973,   
         "hilbert_space_det": [ 1, 2, 3, 4, 5, 6, 7, 8, 9, 10],
         "hilbert_space_det_ms": 0,   
         "hilbert_space_det_symmetry": 0,   
         "ex_level": 10    
     }
 }
 -- End JSON block --

 Information printed out every QMC report loop:

 Shift: the energy offset calculated at the end of the report loop.
 H_0j: <D_0|H|D_j>, Hamiltonian matrix element.
 N_j: population of Hamiltonian particles on determinant D_j.
 # H psips: current total population of Hamiltonian particles.
 # states: number of many-particle states occupied.
 # spawn_events: number of successful spawning events across all processors.
 R_spawn: average rate of spawning across all processors.
 time: average time per Monte Carlo cycle.

 Note that all particle populations are averaged over the report loop.

 # iterations   Shift              \sum H_0j N_j      N_0                  # H psips           # states  # spawn_events  R_spawn   time
 #       6400  -1.3048870280E-01  -1.7257022302E+03   7.9780000000E+03     1.0404800000E+05       44370               0   0.0000   0.000
 # WARNING: more than 3 particles spawned in a single event 4315 times in the last report loop.
 # Mean number of particles created in blooms:      3.6
 # This warning only prints  1 time(s). You may wish to reduce the time step.
         6420  -1.3230666859E-01  -1.7407590494E+03   8.0023000000E+03     1.0442700000E+05       44694           13289   0.0920   0.080
         6440  -1.3585633569E-01  -1.7506747469E+03   8.0677000000E+03     1.0517100000E+05       44862           13749   0.0921   0.072
         6460  -1.4208807925E-01  -1.7710323613E+03   8.1365000000E+03     1.0649000000E+05       45089           13681   0.0922   0.074
         6480  -1.4368661052E-01  -1.7821969802E+03   8.1958000000E+03     1.0683100000E+05       45522           13865   0.0919   0.075
         6500  -1.4307311639E-01  -1.7864222152E+03   8.2580000000E+03     1.0670000000E+05       45433           13942   0.0922   0.075
         6520  -1.4313871658E-01  -1.7803897938E+03   8.3154000000E+03     1.0671400000E+05       45214           13693   0.0920   0.108
         6540  -1.5090738876E-01  -1.7937782512E+03   8.3911000000E+03     1.0838500000E+05       45736           14052   0.0921   0.123
         6560  -1.5584669795E-01  -1.8132205952E+03   8.4611500000E+03     1.0946100000E+05       46261           14136   0.0920   0.125
         6580  -1.5853902792E-01  -1.8175066533E+03   8.4878000000E+03     1.1005200000E+05       46479           14287   0.0921   0.109
         6600  -1.6236796720E-01  -1.8393832089E+03   8.5266000000E+03     1.1089800000E+05       46898           14194   0.0922   0.080
         6620  -1.6752175030E-01  -1.8562567032E+03   8.5664000000E+03     1.1204700000E+05       47435           14574   0.0923   0.080
         6640  -1.6827532994E-01  -1.8702043064E+03   8.6101500000E+03     1.1221600000E+05       47367           14690   0.0923   0.080
         6660  -1.6916122749E-01  -1.8770912979E+03   8.6436500000E+03     1.1241500000E+05       47484           14585   0.0923   0.080
         6680  -1.7096378321E-01  -1.8787546747E+03   8.6905000000E+03     1.1282100000E+05       47323           14718   0.0922   0.081
         6700  -1.7512999587E-01  -1.8938560429E+03   8.7319000000E+03     1.1376500000E+05       47829           14792   0.0920   0.080
         6720  -1.8088934082E-01  -1.9034187279E+03   8.7725500000E+03     1.1508300000E+05       48531           14757   0.0924   0.082
         6740  -1.8179222073E-01  -1.9138671160E+03   8.8147500000E+03     1.1529100000E+05       48402           15062   0.0922   0.083
         6760  -1.8638976572E-01  -1.9226684982E+03   8.8601000000E+03     1.1635600000E+05       48767           15123   0.0923   0.083
         6780  -1.8495245138E-01  -1.9242775873E+03   8.8751500000E+03     1.1602200000E+05       48730           14898   0.0923   0.083
         6800  -1.8996934495E-01  -1.9314827945E+03   8.9049000000E+03     1.1719200000E+05       49065           15250   0.0926   0.084
         6820  -1.8898708509E-01  -1.9388209606E+03   8.9524500000E+03     1.1696200000E+05       49180           15340   0.0925   0.086
         6840  -1.8778010973E-01  -1.9472249290E+03   8.9901500000E+03     1.1668000000E+05       48913           15239   0.0923   0.084
         6860  -1.9071116587E-01  -1.9474744747E+03   9.0203500000E+03     1.1736600000E+05       49091           15001   0.0923   0.085
         6880  -1.9413736348E-01  -1.9655842164E+03   9.0684000000E+03     1.1817300000E+05       49576           15308   0.0923   0.085
         6900  -1.9432349656E-01  -1.9680668546E+03   9.0956500000E+03     1.1821700000E+05       49332           15323   0.0922   0.085
         6920  -1.9793511153E-01  -1.9672239513E+03   9.1358500000E+03     1.1907400000E+05       49449           15444   0.0925   0.085
         6940  -1.9739734154E-01  -1.9903337746E+03   9.1692500000E+03     1.1894600000E+05       49382           15302   0.0925   0.086
         6960  -2.0245798649E-01  -1.9826758603E+03   9.1650500000E+03     1.2015600000E+05       50266           15373   0.0924   0.085
         6980  -2.0287809691E-01  -1.9829457608E+03   9.1655500000E+03     1.2025700000E+05       50300           15558   0.0923   0.085
         7000  -2.0199587348E-01  -1.9811709711E+03   9.1565000000E+03     1.2004500000E+05       50185           15447   0.0924   0.086
         7020  -2.0606523651E-01  -1.9896580382E+03   9.1507000000E+03     1.2102600000E+05       50671           15681   0.0923   0.086
         7040  -2.0275750727E-01  -1.9863670747E+03   9.1651500000E+03     1.2022800000E+05       50444           15647   0.0924   0.086
         7060  -2.0291967280E-01  -1.9828099725E+03   9.1700000000E+03     1.2026700000E+05       50240           15453   0.0922   0.086
         7080  -2.0191673022E-01  -1.9836351959E+03   9.1792500000E+03     1.2002600000E+05       50190           15560   0.0923   0.086
         7100  -2.0398698885E-01  -1.9901759568E+03   9.1778000000E+03     1.2052400000E+05       50529           15627   0.0923   0.085
         7120  -2.0471660129E-01  -1.9988684521E+03   9.1979500000E+03     1.2070000000E+05       50386           15604   0.0922   0.087
         7140  -2.0123724919E-01  -2.0037034819E+03   9.2155000000E+03     1.1986300000E+05       50092           15393   0.0923   0.086
         7160  -1.9763268708E-01  -1.9764105694E+03   9.2243500000E+03     1.1900200000E+05       49755           15362   0.0923   0.085
         7180  -2.0328539166E-01  -1.9958229213E+03   9.2411000000E+03     1.2035500000E+05       50148           15719   0.0923   0.085
         7200  -2.0187923694E-01  -1.9965793194E+03   9.2499500000E+03     1.2001700000E+05       50132           15501   0.0925   0.113
         7220  -2.0319814214E-01  -1.9923742465E+03   9.2720000000E+03     1.2033400000E+05       50304           15400   0.0925   0.136
         7240  -2.0610241722E-01  -1.9866729919E+03   9.2972000000E+03     1.2103500000E+05       50815           15478   0.0924   0.103
         7260  -2.0612307197E-01  -1.9923915482E+03   9.3282000000E+03     1.2104000000E+05       50374           15635   0.0926   0.085
         7280  -2.0811842430E-01  -2.0090873417E+03   9.3251000000E+03     1.2152400000E+05       50808           15762   0.0924   0.086
         7300  -2.1122337470E-01  -2.0055161003E+03   9.3447000000E+03     1.2228100000E+05       51000           15874   0.0926   0.086
         7320  -2.1159533010E-01  -2.0035547705E+03   9.3646000000E+03     1.2237200000E+05       51103           15854   0.0923   0.087
         7340  -2.1060146881E-01  -2.0156788251E+03   9.3786500000E+03     1.2212900000E+05       51216           15630   0.0923   0.089
         7360  -2.1070380913E-01  -2.0253356466E+03   9.3682000000E+03     1.2215400000E+05       51040           15551   0.0922   0.076
         7380  -2.1174240094E-01  -2.0221257393E+03   9.3673000000E+03     1.2240800000E+05       51116           15835   0.0921   0.085
         7400  -2.0644104751E-01  -2.0268610279E+03   9.3538500000E+03     1.2111700000E+05       50534           15624   0.0924   0.086
         7420  -2.0784268257E-01  -2.0318040656E+03   9.3475500000E+03     1.2145700000E+05       50540           15514   0.0922   0.085
         7440  -2.1144004172E-01  -2.0433857664E+03   9.3538000000E+03     1.2233400000E+05       51026           15658   0.0925   0.086
         7460  -2.1190167889E-01  -2.0403884285E+03   9.3602000000E+03     1.2244700000E+05       51007           15949   0.0926   0.087
         7480  -2.1069971592E-01  -2.0249496522E+03   9.3762500000E+03     1.2215300000E+05       50910           15609   0.0925   0.087
         7500  -2.1259129758E-01  -2.0346080244E+03   9.4012500000E+03     1.2261600000E+05       51125           15787   0.0922   0.089
         7520  -2.0832410267E-01  -2.0332302246E+03   9.3940000000E+03     1.2157400000E+05       50603           15589   0.0926   0.087
         7540  -2.1185675947E-01  -2.0363533739E+03   9.3972000000E+03     1.2243600000E+05       50945           15640   0.0923   0.087
         7560  -2.0948254710E-01  -2.0325423009E+03   9.3961000000E+03     1.2185600000E+05       50822           15770   0.0925   0.076
         7580  -2.0801966862E-01  -2.0228710315E+03   9.4125500000E+03     1.2150000000E+05       50447           15674   0.0924   0.087
         7600  -2.1177099303E-01  -2.0284507801E+03   9.4382000000E+03     1.2241500000E+05       50937           15724   0.0925   0.086
         7620  -2.0887901203E-01  -2.0286882308E+03   9.4516000000E+03     1.2170900000E+05       50630           15742   0.0924   0.086
         7640  -2.0905973839E-01  -2.0209719162E+03   9.4598500000E+03     1.2175300000E+05       50572           15642   0.0922   0.087
         7660  -2.1207315225E-01  -2.0349249087E+03   9.4791500000E+03     1.2248900000E+05       50982           15861   0.0922   0.086
         7680  -2.1176690855E-01  -2.0418244875E+03   9.4729000000E+03     1.2241400000E+05       50810           15792   0.0926   0.087
         7700  -2.1253420553E-01  -2.0302389358E+03   9.4690500000E+03     1.2260200000E+05       50998           15694   0.0924   0.116
         7720  -2.1377245501E-01  -2.0384897583E+03   9.4657000000E+03     1.2290600000E+05       51005           15870   0.0926   0.143
         7740  -2.1577404109E-01  -2.0352710447E+03   9.4497000000E+03     1.2339900000E+05       51335           15820   0.0923   0.095
         7760  -2.1482093754E-01  -2.0320094513E+03   9.4373000000E+03     1.2316400000E+05       51230           15944   0.0923   0.082
         7780  -2.1562815153E-01  -2.0337807868E+03   9.4415000000E+03     1.2336300000E+05       51518           15925   0.0922   0.092
         7800  -2.1270138529E-01  -2.0407784420E+03   9.4214500000E+03     1.2264300000E+05       50998           15886   0.0925   0.151
         7820  -2.1064650113E-01  -2.0468951855E+03   9.4080500000E+03     1.2214000000E+05       50695           16133   0.0925   0.155
         7840  -2.1099434147E-01  -2.0436671201E+03   9.4059000000E+03     1.2222500000E+05       50796           15648   0.0924   0.159
         7860  -2.0993369592E-01  -2.0328199704E+03   9.4082000000E+03     1.2196600000E+05       50711           15982   0.0925   0.156
         7880  -2.1290111219E-01  -2.0457352051E+03   9.4098000000E+03     1.2269200000E+05       51092           15887   0.0924   0.156
         7900  -2.0942509895E-01  -2.0231333263E+03   9.3969000000E+03     1.2184200000E+05       50870           15724   0.0923   0.157

 Blooming events occured: a more efficent calulation may be possible with a smaller timestep.
 Total number of blooming events: 365985
 Maximum number of particles spawned in a blooming event:      21.00
 Mean number of particles spawned in a blooming event:         3.61

 ================================================================
 Finished running on 04/04/2016 at 23:10:16
 Wall time (seconds):                         142.77
 CPU time (per processor, seconds):           141.22
 ================================================================

