molecule h2o {
    O
    H 1 0.96
    H 1 0.96 2 104.5
}

set {
    basis cc-pVDZ
    scf_type pk
    e_convergence 1.0e-8
    d_convergence 1.0e-8
}

scf_e, scf_wfn = energy('SCF', return_wfn=True)
fcidump(scf_wfn, fname='H2O_INTDUMP', oe_ints=['EIGENVALUES'])
