fciqmc {
    sys = read_in {
        int_file = 'INTDUMP',
        electrons = 6,
        ms = 0,
        sym = 0,
        CAS = {2, 2},
    },
    reference = {
        det = {1, 4},
    },
    qmc = {
        rng_seed = -1454104068,   
        tau = 0.005,
        init_pop = 1e1,
        mc_cycles = 10,
        nreports = 5000,
        target_population = 1e3,
        state_size = -10,
        spawned_state_size = -15,
        vary_shift_from = 'proje',
        real_amplitudes = true,
    },
    fciqmc = {
        replica_tricks = true,
        density_matrices = true,
    },
}
--[[ QCHEM INPUT for this pathological LiH3 non-canonical orbitals
$molecule
0 1
Li 0 0 0
H  4 0 0
H  0 1 1
H  0 -2 1
$end
$rem
basis sto-3g
jobtype sp
correlation none
exchange hf
symmetry off
sym_ignore true
$end
@@@
$molecule
read
$end
$rem
scf_guess read
basis sto-3g
jobtype sp
correlation none
exchange gen
mom_start 1
symmetry off
sym_ignore true
$end

$xc_functional
X S 0.1
K 0.9
$end
@@@
$molecule
read
$end
$rem
scf_guess read
basis sto-3g
jobtype sp
skip_scfman true
correlation ccsd
symmetry off
sym_ignore true
n_frozen_core 2
n_frozen_virtual 4
cc_print 7
cc_diis_start 1
!ccman2 false
$end
@@@
$molecule
read
$end
$rem
scf_guess read
basis sto-3g
jobtype sp
skip_scfman true
correlation idump
symmetry off
sym_ignore true
cc_print 7
cc_diis_start 1
!ccman2 false
$end
@@@
$molecule
read
$end
$rem
scf_guess read
basis sto-3g
skip_scfman true
correlation qcisd
exchange hf
symmetry off
n_frozen_core 2
n_frozen_virtual 4
sym_ignore true
$end
]]
