
   HANDE

 ================================================================
 Compiled on Apr 04 2016 at 22:24:49
 Compiled using cuc3.intel13.mpi.pop64.(optimised)
 VCS BASE repository version:
     da9c8759097cd4f728cbd232c8b52ee5b95c04e0
 Hostname:
     hypatia
 Working directory: 
     /home/rstf2/code/hande_master/test_suite/fciqmc/np1/H2O-RHF-cc-pVTZ
 Started running on 04/04/2016 at 22:49:33
 Calculation UUID: 124d8154-3539-4273-ade7-a9fb0ca1815c.
 Preprocessor settings:
     DISABLE_HDF5 not defined.  HDF5 enabled.
     DISABLE_LANCZOS not defined.  Lanczos enabled.
     DISABLE_UUID not defined.  UUID enabled.
     PARALLEL defined.  MPI parallelization enabled.
     DISABLE_SCALAPACK not defined.  ScaLAPACK enabled.
     SINGLE_PRECISION not defined.  Double precision used throughout.
     USE_POPCNT not defined.  Internal POPCNT procedure used.
     DET_SIZE = 32.
     POP_SIZE = 64.
 ================================================================

 Input options
 -------------

sys = read_in {
    int_file = "INTDUMP",
    nel = 10,
    ms = 0,
    sym = 0,
    CAS = {8, 13},
}

fciqmc {
    sys = sys,
    qmc = {
        tau = 0.003,
        rng_seed = 7,
        init_pop = 10,
        mc_cycles = 20,
        nreports = 250,
        target_population = 10000000,
        state_size = -5,
        spawned_state_size = -1,
    },
}
--    SCF calculation produced by Q-Chem using:  
--[[
$molecule
    0 1
    O
    H1 O distance
    H2 O distance H1 theta

    distance = 0.975512
    theta = 110.565
$end

$rem
    basis cc-pvdz
    exchange hf
    correlation idump
    scf_convergence 11
    thresh 13
    jobtype sp
    iprint 20000011
    geom_opt_coords 0
    print_orbitals 999
    unrestricted false
    use_abelian_subgroup true
$end
--]]

 -------------

 Basis functions
 ---------------

 Spin given in units of 1/2.

 index  spatial symmetry sym_index lz     ms       <i|h|i>
     1      1       0       0       0       1       -2.05499773E+01
     2      1       0       0       0      -1       -2.05499773E+01
     3      2       0       0       0       1       -1.32297446E+00
     4      2       0       0       0      -1       -1.32297446E+00
     5      3       2       0       0       1       -7.00161211E-01
     6      3       2       0       0      -1       -7.00161211E-01
     7      4       0       0       0       1       -5.50962063E-01
     8      4       0       0       0      -1       -5.50962063E-01
     9      5       3       0       0       1       -4.89508680E-01
    10      5       3       0       0      -1       -4.89508680E-01
    11      6       0       0       0       1        1.83199478E-01
    12      6       0       0       0      -1        1.83199478E-01
    13      7       2       0       0       1        2.52969578E-01
    14      7       2       0       0      -1        2.52969578E-01
    15      8       2       0       0       1        7.98317996E-01
    16      8       2       0       0      -1        7.98317996E-01
    17      9       0       0       0       1        8.09778265E-01
    18      9       0       0       0      -1        8.09778265E-01
    19     10       0       0       0       1        1.16258211E+00
    20     10       0       0       0      -1        1.16258211E+00
    21     11       3       0       0       1        1.20176996E+00
    22     11       3       0       0      -1        1.20176996E+00
    23     12       2       0       0       1        1.24793854E+00
    24     12       2       0       0      -1        1.24793854E+00
    25     13       1       0       0       1        1.45390987E+00
    26     13       1       0       0      -1        1.45390987E+00
    27     14       0       0       0       1        1.49806022E+00
    28     14       0       0       0      -1        1.49806022E+00
    29     15       3       0       0       1        1.70216435E+00
    30     15       3       0       0      -1        1.70216435E+00
    31     16       2       0       0       1        1.88257491E+00
    32     16       2       0       0      -1        1.88257491E+00
    33     17       0       0       0       1        1.88521958E+00
    34     17       0       0       0      -1        1.88521958E+00
    35     18       2       0       0       1        2.42977474E+00
    36     18       2       0       0      -1        2.42977474E+00
    37     19       0       0       0       1        2.43667035E+00
    38     19       0       0       0      -1        2.43667035E+00
    39     20       3       0       0       1        3.23811853E+00
    40     20       3       0       0      -1        3.23811853E+00
    41     21       1       0       0       1        3.34381346E+00
    42     21       1       0       0      -1        3.34381346E+00
    43     22       0       0       0       1        3.44292654E+00
    44     22       0       0       0      -1        3.44292654E+00
    45     23       0       0       0       1        3.90461376E+00
    46     23       0       0       0      -1        3.90461376E+00
    47     24       2       0       0       1        4.08952549E+00
    48     24       2       0       0      -1        4.08952549E+00

 Freezing...
 Using complete active space: (8,13)

 Basis functions
 ---------------

 Spin given in units of 1/2.

 index  spatial symmetry sym_index lz     ms       <i|h|i>
     1      1       0       1       0       1       -1.32297446E+00
     2      1       0       2       0      -1       -1.32297446E+00
     3      2       2       1       0       1       -7.00161211E-01
     4      2       2       2       0      -1       -7.00161211E-01
     5      3       0       3       0       1       -5.50962063E-01
     6      3       0       4       0      -1       -5.50962063E-01
     7      4       3       1       0       1       -4.89508680E-01
     8      4       3       2       0      -1       -4.89508680E-01
     9      5       0       5       0       1        1.83199478E-01
    10      5       0       6       0      -1        1.83199478E-01
    11      6       2       3       0       1        2.52969578E-01
    12      6       2       4       0      -1        2.52969578E-01
    13      7       2       5       0       1        7.98317996E-01
    14      7       2       6       0      -1        7.98317996E-01
    15      8       0       7       0       1        8.09778265E-01
    16      8       0       8       0      -1        8.09778265E-01
    17      9       0       9       0       1        1.16258211E+00
    18      9       0      10       0      -1        1.16258211E+00
    19     10       3       3       0       1        1.20176996E+00
    20     10       3       4       0      -1        1.20176996E+00
    21     11       2       7       0       1        1.24793854E+00
    22     11       2       8       0      -1        1.24793854E+00
    23     12       1       1       0       1        1.45390987E+00
    24     12       1       2       0      -1        1.45390987E+00
    25     13       0      11       0       1        1.49806022E+00
    26     13       0      12       0      -1        1.49806022E+00

 E_core =  -52.265550979288
 Number of electrons: 8
 Number of basis functions: 26

 Bit-length of integers used to store determinant bit-strings: 32
 Number of integers used to store determinant bit-strings: 1

 Symmetry information
 --------------------

 Number of point group symmetries: 4
 Not using Lz symmetry.
 Totally symmetric symmetry: 0
 The matrix below gives the direct products of the irreducible representations.

  0  1  2  3
  1  0  3  2
  2  3  0  1
  3  2  1  0

 The table below gives the number of basis functions spanning each irreducible representation.

 irrep  Lz   sym  nbasis  nbasis_up  nbasis_down
   0     0    0     12       6          6
   1     0    1      2       1          1
   2     0    2      8       4          4
   3     0    3      4       2          2

 FCIQMC
 ------

 Memory allocated per core for main walker list (MB):    5.00
 Number of elements per core in main walker list: 208333
 Memory allocated per core for spawned walker lists (MB):    1.00
 Number of elements per core in spawned walker list: 31250

 -- Start JSON block --
 {
     "system": {
         "nbasis": 26,   
         "nel": 8,   
         "nvirt": 18,   
         "Ms": 0,   
         "nalpha": 4,   
         "nbeta": 4,   
         "nvirt_alpha": 9,   
         "nvirt_beta": 9,   
         "nsym": 3,   
         "sym0": 0,   
         "sym_max": 3,   
         "nsym_tot": 4,   
         "sym0_tot": 0,   
         "sym_max_tot": 3,   
         "symmetry": 0,   
         "max_number_excitations": 8,   
         "read_in": {
             "int_file":  "INTDUMP",   
             "uhf": false,   
             "Ecore": -52.26555098,   
             "CAS": [ 8, 13],
             "useLz": false,   
             "complex": false    
         }
     },
     "qmc": {
         "rng_seed": 7,   
         "real_amplitudes": false,   
         "real_amplitude_force_32": false,   
         "spawn_cutoff": 0.01000000,   
         "excit_gen": 0,   
         "pattempt_single": 0.04938272,   
         "pattempt_double": 0.95061728,   
         "tau": 0.00300000,   
         "tau_search": false,   
         "vary_shift_from": 0.00000000,   
         "vary_shift_from_proje": false,   
         "initial_shift": 0.00000000,   
         "shift_damping": 0.05000000,   
         "walker_length": -5,   
         "spawned_walker_length": -1,   
         "D0_population": 10.00000000,   
         "target_particles": 10000000.00000000,   
         "initiator_approx": false,   
         "initiator_pop": 3.00000000,   
         "ncycles": 20,   
         "nreport": 250,   
         "use_mpi_barriers": false    
     },
     "fciqmc": {
         "select_ref_det_every_nreports": 2147483647,   
         "init_spin_inv_D0": false,   
         "ref_det_factor": 1.50000000,   
         "non_blocking_comm": false,   
         "doing_load_balancing": false,   
         "trial_function": 0,   
         "guiding_function": 0    
     },
     "semi_stoch": {
         "start_iter": 1,   
         "shift_iter": -1,   
         "space_type": 0,   
         "target_size": 0,   
         "write_determ_space": false,   
         "projection_mode": 0,   
         "read_id": 2147483647,   
         "write_id": 2147483647    
     },
     "restart": {
         "read_restart": false,   
         "read_id": 2147483647,   
         "write_restart": false,   
         "write_id": 2147483647,   
         "write_freq": 2147483647,   
         "write_restart_shift": false,   
         "write_shift_id": 2147483647    
     },
     "load balancing": {
         "nslots": 1,   
         "pop": 1000,   
         "percent": 0.05000000,   
         "max_attempts": 2,   
         "write_info": false    
     },
     "reference": {
         "det": [ 1, 3, 5, 7, 2, 4, 6, 8],
         "det_ms": 0,   
         "det_symmetry": 0,   
         "H00": -76.02403856,   
         "hilbert_space_det": [ 1, 3, 5, 7, 2, 4, 6, 8],
         "hilbert_space_det_ms": 0,   
         "hilbert_space_det_symmetry": 0,   
         "ex_level": 8    
     }
 }
 -- End JSON block --

 Information printed out every QMC report loop:

 Shift: the energy offset calculated at the end of the report loop.
 H_0j: <D_0|H|D_j>, Hamiltonian matrix element.
 N_j: population of Hamiltonian particles on determinant D_j.
 # H psips: current total population of Hamiltonian particles.
 # states: number of many-particle states occupied.
 # spawn_events: number of successful spawning events across all processors.
 R_spawn: average rate of spawning across all processors.
 time: average time per Monte Carlo cycle.

 Note that all particle populations are averaged over the report loop.

 # iterations   Shift              \sum H_0j N_j      N_0                  # H psips           # states  # spawn_events  R_spawn   time
 #          0   0.0000000000E+00   0.0000000000E+00   1.0000000000E+01     1.0000000000E+01           1               0   0.0000   0.000
           20   0.0000000000E+00  -1.6562228407E-02   1.0000000000E+01     1.3000000000E+01           4               2   0.0070   0.000
           40   0.0000000000E+00  -1.8686816140E-01   1.0000000000E+01     1.6000000000E+01           7               0   0.0084   0.000
           60   0.0000000000E+00  -2.0694005870E-01   1.0000000000E+01     2.6000000000E+01          17               4   0.0160   0.000
           80   0.0000000000E+00  -4.7722816321E-01   1.0000000000E+01     4.4000000000E+01          34               2   0.0205   0.000
          100   0.0000000000E+00  -6.0798898528E-01   1.0000000000E+01     6.4000000000E+01          53               4   0.0161   0.000
          120   0.0000000000E+00  -6.0759826994E-01   1.0000000000E+01     8.2000000000E+01          70               2   0.0176   0.000
          140   0.0000000000E+00  -5.8684741291E-01   1.0000000000E+01     1.0900000000E+02          97               2   0.0219   0.000
          160   0.0000000000E+00  -5.6320326992E-01   1.0000000000E+01     1.4600000000E+02         134               2   0.0163   0.000
          180   0.0000000000E+00  -6.4652532287E-01   1.0000000000E+01     2.1400000000E+02         199               9   0.0225   0.000
          200   0.0000000000E+00  -5.9028680322E-01   1.0000000000E+01     2.7900000000E+02         268              10   0.0216   0.000
          220   0.0000000000E+00  -5.6185529455E-01   1.0000000000E+01     3.5400000000E+02         343              14   0.0241   0.000
          240   0.0000000000E+00  -8.0023627459E-01   1.0000000000E+01     4.5700000000E+02         443              13   0.0218   0.000
          260   0.0000000000E+00  -9.0751957452E-01   1.0000000000E+01     6.1800000000E+02         598              19   0.0249   0.000
          280   0.0000000000E+00  -8.6686248343E-01   1.0500000000E+01     7.9100000000E+02         762              16   0.0240   0.000
          300   0.0000000000E+00  -7.8667045635E-01   1.1000000000E+01     1.0340000000E+03        1003              28   0.0243   0.001
          320   0.0000000000E+00  -1.0254912000E+00   1.1000000000E+01     1.3520000000E+03        1318              41   0.0248   0.001
          340   0.0000000000E+00  -1.1958186022E+00   1.1000000000E+01     1.7650000000E+03        1715              47   0.0244   0.001
          360   0.0000000000E+00  -1.3869934230E+00   1.1000000000E+01     2.1920000000E+03        2133              72   0.0240   0.001
          380   0.0000000000E+00  -1.1089663684E+00   1.1000000000E+01     2.6810000000E+03        2609              72   0.0250   0.002
          400   0.0000000000E+00  -1.0475096645E+00   1.1000000000E+01     3.2530000000E+03        3159              86   0.0250   0.002
          420   0.0000000000E+00  -6.0386813261E-01   1.1000000000E+01     3.8370000000E+03        3713             106   0.0251   0.002
          440   0.0000000000E+00  -8.1461975695E-01   1.1000000000E+01     4.6190000000E+03        4435             138   0.0252   0.003
          460   0.0000000000E+00  -1.0524248126E+00   1.1000000000E+01     5.3800000000E+03        5171             160   0.0249   0.003
          480   0.0000000000E+00  -9.4917938666E-01   1.0850000000E+01     6.3900000000E+03        6138             212   0.0245   0.004
          500   0.0000000000E+00  -1.1657737435E+00   1.0000000000E+01     7.3570000000E+03        7027             223   0.0251   0.005
          520   0.0000000000E+00  -1.0944804130E+00   1.0550000000E+01     8.5370000000E+03        8114             289   0.0256   0.005
          540   0.0000000000E+00  -1.3460266023E+00   1.1000000000E+01     9.7350000000E+03        9253             276   0.0256   0.006
          560   0.0000000000E+00  -1.3281859962E+00   1.1000000000E+01     1.0977000000E+04       10392             331   0.0255   0.007
          580   0.0000000000E+00  -1.1238125587E+00   1.1000000000E+01     1.2380000000E+04       11688             417   0.0257   0.008
          600   0.0000000000E+00  -1.2757711138E+00   1.0100000000E+01     1.3898000000E+04       13065             429   0.0257   0.009
          620   0.0000000000E+00  -1.5373296879E+00   1.0000000000E+01     1.5237000000E+04       14255             481   0.0257   0.010
          640   0.0000000000E+00  -1.5739109430E+00   1.0000000000E+01     1.6608000000E+04       15457             490   0.0257   0.011
          660   0.0000000000E+00  -1.5164585923E+00   8.8500000000E+00     1.7964000000E+04       16705             543   0.0258   0.012
          680   0.0000000000E+00  -1.5086471000E+00   8.7000000000E+00     1.9337000000E+04       17953             610   0.0257   0.012
          700   0.0000000000E+00  -1.6513147106E+00   7.3500000000E+00     2.0804000000E+04       19133             650   0.0258   0.013
          720   0.0000000000E+00  -2.1336021712E+00   7.6500000000E+00     2.2015000000E+04       20221             685   0.0258   0.014
          740   0.0000000000E+00  -2.2943209766E+00   8.0000000000E+00     2.3006000000E+04       21013             689   0.0258   0.015
          760   0.0000000000E+00  -2.5014866529E+00   8.0000000000E+00     2.4053000000E+04       21921             719   0.0260   0.016
          780   0.0000000000E+00  -2.1195955846E+00   7.9500000000E+00     2.4970000000E+04       22752             737   0.0257   0.017
          800   0.0000000000E+00  -1.9422479279E+00   6.3500000000E+00     2.6085000000E+04       23632             711   0.0259   0.017
          820   0.0000000000E+00  -1.9032358822E+00   6.0000000000E+00     2.7166000000E+04       24521             773   0.0258   0.017
          840   0.0000000000E+00  -1.8453741361E+00   6.2000000000E+00     2.7749000000E+04       24977             834   0.0259   0.017
          860   0.0000000000E+00  -1.5944601657E+00   7.0000000000E+00     2.8325000000E+04       25524             904   0.0258   0.018
          880   0.0000000000E+00  -1.3604292828E+00   7.4500000000E+00     2.8624000000E+04       25712             832   0.0258   0.019
          900   0.0000000000E+00  -1.9380254899E+00   8.0000000000E+00     2.9227000000E+04       26180             863   0.0259   0.016
          920   0.0000000000E+00  -1.8689041689E+00   8.0000000000E+00     2.9714000000E+04       26613             919   0.0258   0.016
          940   0.0000000000E+00  -1.9111997815E+00   8.0000000000E+00     3.0067000000E+04       26946             890   0.0255   0.017
          960   0.0000000000E+00  -2.0404266097E+00   7.3500000000E+00     3.0409000000E+04       27208             946   0.0261   0.021
          980   0.0000000000E+00  -1.8603941339E+00   7.0000000000E+00     3.1320000000E+04       27940             912   0.0259   0.020
         1000   0.0000000000E+00  -2.1108739596E+00   6.7000000000E+00     3.1685000000E+04       28249             949   0.0260   0.020
         1020   0.0000000000E+00  -2.2947988876E+00   6.0000000000E+00     3.2066000000E+04       28503            1027   0.0258   0.021
         1040   0.0000000000E+00  -1.6417787908E+00   7.6500000000E+00     3.2302000000E+04       28726             996   0.0262   0.021
         1060   0.0000000000E+00  -1.4552407982E+00   7.8000000000E+00     3.2346000000E+04       28735             916   0.0258   0.021
         1080   0.0000000000E+00  -1.3431692026E+00   7.0000000000E+00     3.2530000000E+04       28916             979   0.0258   0.021
         1100   0.0000000000E+00  -1.6301048581E+00   7.0000000000E+00     3.2757000000E+04       29138            1000   0.0259   0.022
         1120   0.0000000000E+00  -1.7465025034E+00   7.0000000000E+00     3.2833000000E+04       29187             959   0.0261   0.021
         1140   0.0000000000E+00  -1.5912164511E+00   7.0000000000E+00     3.2910000000E+04       29298             980   0.0259   0.021
         1160   0.0000000000E+00  -2.0190583005E+00   6.3500000000E+00     3.3101000000E+04       29446             975   0.0259   0.021
         1180   0.0000000000E+00  -2.0832470417E+00   6.8500000000E+00     3.2967000000E+04       29349             967   0.0258   0.022
         1200   0.0000000000E+00  -2.3697248682E+00   7.0000000000E+00     3.2838000000E+04       29219            1045   0.0256   0.022
         1220   0.0000000000E+00  -2.9505551563E+00   7.7000000000E+00     3.2804000000E+04       29202             955   0.0259   0.022
         1240   0.0000000000E+00  -3.0542604760E+00   8.0000000000E+00     3.2765000000E+04       29178             947   0.0258   0.021
         1260   0.0000000000E+00  -2.3483237221E+00   8.2000000000E+00     3.3278000000E+04       29531            1054   0.0259   0.021
         1280   0.0000000000E+00  -2.0279133198E+00   9.8500000000E+00     3.3232000000E+04       29472             993   0.0257   0.022
         1300   0.0000000000E+00  -1.7002902460E+00   1.0000000000E+01     3.3615000000E+04       29736            1044   0.0259   0.021
         1320   0.0000000000E+00  -1.8869988067E+00   1.0000000000E+01     3.3763000000E+04       29895             992   0.0260   0.022
         1340   0.0000000000E+00  -2.3544388192E+00   1.0000000000E+01     3.3740000000E+04       29862            1093   0.0261   0.022
         1360   0.0000000000E+00  -1.9520080274E+00   1.0250000000E+01     3.3489000000E+04       29671             952   0.0256   0.022
         1380   0.0000000000E+00  -9.7773887206E-01   1.0600000000E+01     3.3628000000E+04       29827             978   0.0258   0.023
         1400   0.0000000000E+00  -1.2350391575E+00   1.1150000000E+01     3.3818000000E+04       29948            1046   0.0261   0.024
         1420   0.0000000000E+00  -1.3103588932E+00   1.0700000000E+01     3.3705000000E+04       29785             962   0.0259   0.022
         1440   0.0000000000E+00  -1.2558381664E+00   1.0000000000E+01     3.3593000000E+04       29739            1009   0.0257   0.022
         1460   0.0000000000E+00  -1.2908312730E+00   1.0000000000E+01     3.3631000000E+04       29843             985   0.0259   0.022
         1480   0.0000000000E+00  -1.2620129175E+00   9.9000000000E+00     3.3822000000E+04       29959            1082   0.0259   0.023
         1500   0.0000000000E+00  -1.2047405724E+00   1.0550000000E+01     3.3789000000E+04       29988             952   0.0259   0.023
         1520   0.0000000000E+00  -6.3081840527E-01   1.1000000000E+01     3.3997000000E+04       30113            1002   0.0258   0.028
         1540   0.0000000000E+00  -1.0836170207E+00   1.1000000000E+01     3.4233000000E+04       30293            1041   0.0259   0.036
         1560   0.0000000000E+00  -8.5254729378E-01   1.1000000000E+01     3.4055000000E+04       30217             954   0.0257   0.036
         1580   0.0000000000E+00  -7.4430194401E-01   1.1350000000E+01     3.4202000000E+04       30330            1048   0.0258   0.036
         1600   0.0000000000E+00  -4.0785077731E-01   1.2000000000E+01     3.4257000000E+04       30358            1000   0.0258   0.036
         1620   0.0000000000E+00  -6.5770168200E-01   1.2150000000E+01     3.4123000000E+04       30229             999   0.0259   0.036
         1640   0.0000000000E+00  -7.2436119133E-01   1.3000000000E+01     3.3830000000E+04       29987            1026   0.0258   0.035
         1660   0.0000000000E+00  -5.4648270198E-01   1.3000000000E+01     3.4037000000E+04       30151            1021   0.0259   0.036
         1680   0.0000000000E+00  -1.1660518025E+00   1.3000000000E+01     3.4140000000E+04       30245            1054   0.0258   0.036
         1700   0.0000000000E+00  -8.6379514308E-01   1.3000000000E+01     3.4133000000E+04       30268             986   0.0258   0.035
         1720   0.0000000000E+00  -7.6245299076E-01   1.3350000000E+01     3.4198000000E+04       30326             987   0.0259   0.036
         1740   0.0000000000E+00  -2.1478232552E-01   1.4550000000E+01     3.4470000000E+04       30496            1063   0.0259   0.036
         1760   0.0000000000E+00   1.2905902136E-01   1.5000000000E+01     3.4260000000E+04       30354            1002   0.0258   0.037
         1780   0.0000000000E+00  -1.7259157314E-01   1.5000000000E+01     3.4298000000E+04       30310            1083   0.0259   0.037
         1800   0.0000000000E+00   2.1923462549E-02   1.4900000000E+01     3.4510000000E+04       30453             979   0.0258   0.024
         1820   0.0000000000E+00   5.7533389465E-02   1.4000000000E+01     3.4402000000E+04       30520            1045   0.0259   0.022
         1840   0.0000000000E+00   2.8525204701E-02   1.4000000000E+01     3.4305000000E+04       30454            1056   0.0258   0.022
         1860   0.0000000000E+00  -5.9400667364E-01   1.4000000000E+01     3.4233000000E+04       30343            1004   0.0259   0.022
         1880   0.0000000000E+00  -1.2732054406E+00   1.4000000000E+01     3.3935000000E+04       30072             958   0.0258   0.022
         1900   0.0000000000E+00  -1.4260573224E+00   1.4100000000E+01     3.3876000000E+04       30139             984   0.0259   0.023
         1920   0.0000000000E+00  -1.6112175229E+00   1.5950000000E+01     3.3911000000E+04       30072            1010   0.0257   0.023
         1940   0.0000000000E+00  -1.7942543695E+00   1.6050000000E+01     3.3810000000E+04       29940             997   0.0260   0.023
         1960   0.0000000000E+00  -2.5393753623E+00   1.7000000000E+01     3.3854000000E+04       30032             981   0.0260   0.022
         1980   0.0000000000E+00  -2.2192172398E+00   1.7000000000E+01     3.3897000000E+04       30111            1030   0.0259   0.023
         2000   0.0000000000E+00  -1.7516404092E+00   1.7200000000E+01     3.3629000000E+04       29909            1035   0.0263   0.022
         2020   0.0000000000E+00  -1.8290951606E+00   1.8000000000E+01     3.3678000000E+04       29924            1097   0.0260   0.022
         2040   0.0000000000E+00  -2.0633777665E+00   1.8000000000E+01     3.3264000000E+04       29527             984   0.0260   0.022
         2060   0.0000000000E+00  -1.8617507371E+00   1.8000000000E+01     3.3273000000E+04       29522             969   0.0259   0.021
         2080   0.0000000000E+00  -2.6479866386E+00   1.8000000000E+01     3.3191000000E+04       29500            1013   0.0261   0.021
         2100   0.0000000000E+00  -3.0758767807E+00   1.8000000000E+01     3.3357000000E+04       29561            1042   0.0257   0.021
         2120   0.0000000000E+00  -2.7513399382E+00   1.8000000000E+01     3.3037000000E+04       29268            1020   0.0258   0.021
         2140   0.0000000000E+00  -2.4554688444E+00   1.8350000000E+01     3.3153000000E+04       29458             953   0.0259   0.022
         2160   0.0000000000E+00  -2.2734639655E+00   1.9000000000E+01     3.3119000000E+04       29456            1013   0.0259   0.022
         2180   0.0000000000E+00  -2.3505034975E+00   1.9600000000E+01     3.3192000000E+04       29517             963   0.0259   0.021
         2200   0.0000000000E+00  -1.9955265689E+00   1.9150000000E+01     3.3155000000E+04       29545            1044   0.0261   0.021
         2220   0.0000000000E+00  -2.1255731471E+00   1.9000000000E+01     3.2961000000E+04       29323             981   0.0262   0.021
         2240   0.0000000000E+00  -2.0342277015E+00   1.8350000000E+01     3.3008000000E+04       29291            1028   0.0260   0.021
         2260   0.0000000000E+00  -2.2924339356E+00   1.8000000000E+01     3.3381000000E+04       29663            1001   0.0258   0.023
         2280   0.0000000000E+00  -2.2591716271E+00   1.8000000000E+01     3.3355000000E+04       29619             975   0.0260   0.022
         2300   0.0000000000E+00  -2.6207645958E+00   1.8000000000E+01     3.3551000000E+04       29824             971   0.0260   0.022
         2320   0.0000000000E+00  -3.0086178567E+00   1.8000000000E+01     3.3597000000E+04       29823             986   0.0258   0.022
         2340   0.0000000000E+00  -2.9341942307E+00   1.7300000000E+01     3.3677000000E+04       29910            1022   0.0260   0.023
         2360   0.0000000000E+00  -2.3211392906E+00   1.7400000000E+01     3.3677000000E+04       29908            1036   0.0259   0.023
         2380   0.0000000000E+00  -2.2293232237E+00   1.8000000000E+01     3.3588000000E+04       29901            1054   0.0258   0.023
         2400   0.0000000000E+00  -1.7257542221E+00   1.8000000000E+01     3.3554000000E+04       29873            1039   0.0258   0.022
         2420   0.0000000000E+00  -1.3554811889E+00   1.8150000000E+01     3.3671000000E+04       29971            1034   0.0262   0.022
         2440   0.0000000000E+00  -1.9369762100E+00   1.8800000000E+01     3.3494000000E+04       29737            1002   0.0261   0.022
         2460   0.0000000000E+00  -2.1761632225E+00   1.8000000000E+01     3.3479000000E+04       29765            1020   0.0263   0.022
         2480   0.0000000000E+00  -2.1931899532E+00   1.8000000000E+01     3.3641000000E+04       29889            1069   0.0260   0.022
         2500   0.0000000000E+00  -1.9935018974E+00   1.7550000000E+01     3.3574000000E+04       29827             990   0.0259   0.021
         2520   0.0000000000E+00  -1.6775833597E+00   1.8000000000E+01     3.3774000000E+04       29982            1005   0.0259   0.022
         2540   0.0000000000E+00  -1.1502130608E+00   1.8000000000E+01     3.3945000000E+04       30077            1040   0.0260   0.023
         2560   0.0000000000E+00  -1.7321593504E+00   1.8000000000E+01     3.4106000000E+04       30322            1011   0.0258   0.023
         2580   0.0000000000E+00  -1.7161377927E+00   1.6950000000E+01     3.3884000000E+04       30040            1027   0.0259   0.023
         2600   0.0000000000E+00  -1.4492148989E+00   1.7400000000E+01     3.4222000000E+04       30320            1026   0.0259   0.023