sys = read_in {
    int_file = "INTDUMP",
    nel = 10,
    ms = 0,
    sym = 0,
    CAS = {8, 13},
}

fciqmc {
    sys = sys,
    qmc = {
        tau = 0.003,
        rng_seed = 7,
        init_pop = 10,
        mc_cycles = 20,
        nreports = 250,
        target_population = 10000000,
        state_size = -5,
        spawned_state_size = -1,
    },
}
--    SCF calculation produced by Q-Chem using:  
--[[
$molecule
    0 1
    O
    H1 O distance
    H2 O distance H1 theta

    distance = 0.975512
    theta = 110.565
$end

$rem
    basis cc-pvdz
    exchange hf
    correlation idump
    scf_convergence 11
    thresh 13
    jobtype sp
    iprint 20000011
    geom_opt_coords 0
    print_orbitals 999
    unrestricted false
    use_abelian_subgroup true
$end
--]]
